61
100
80	10
79	7
78	5
77	12
76	5
75	13
74	9
73	4
72	8
71	9
70	6
69	10
68	12
67	15
66	10
65	5
64	11
63	4
62	10
61	5
60	13
59	9
58	10
57	9
56	7
55	10
54	9
53	13
52	6
51	8
50	6
49	9
48	6
47	4
46	5
45	5
44	13
43	11
42	11
41	16
40	7
39	8
38	7
37	9
36	5
35	5
34	11
33	8
32	5
31	5
30	3
29	8
28	8
27	4
26	7
25	10
24	6
23	5
22	6
21	13
20	10
